8 8 1
3 3 1 2 2 3 3 4 2 4 5 5 4 3 1 1 2 4 3 5
3 3 1 3 3 5 5 2 3 1 4 2 3 5 6 3 3 4 5 7 6 11
3 2 1 5 2 6 3 2 4 4 3 5 5 3 3 13 5 9 6 12
3 3 1 9 3 7 4 9 3 2 6 4 4 6 5 3 1 1 3 3 6 3
3 3 1 2 2 3 3 4 2 4 5 5 4 3 1 1 2 4 3 5
3 3 1 3 3 5 5 2 3 1 4 2 3 5 6 3 3 4 5 7 6 11
3 2 1 5 2 6 3 2 4 4 3 5 5 3 3 13 5 9 6 12
3 3 1 9 3 7 4 9 3 2 6 4 4 6 5 3 1 1 3 3 6 3